p cnf 876 2577
c inputs: 1 2 3 4 5 6 7 8 9 10 11 12 13 14 15 16 17
c variables for gates: 18 ... 859
c outputs: 860 861 862 863 864 865 866 867 868 869 870 871 872 873 874 875 876
c random input: -1 -2 -3 4 -5 6 7 8 -9 10 11 -12 13 14 -15 16 -17
18 -1 -10 0
-18 1 0
-18 10 0
19 -2 -9 0
-19 2 0
-19 9 0
20 -18 19 0
-20 18 0
-20 -19 0
21 -19 18 0
-21 19 0
-21 -18 0
22 20 21 0
-22 -20 0
-22 -21 0
23 -1 -10 0
-23 1 0
-23 10 0
24 -2 -9 0
-24 2 0
-24 9 0
25 -24 -23 0
-25 24 0
-25 23 0
26 -1 -11 0
-26 1 0
-26 11 0
27 -2 -10 0
-27 2 0
-27 10 0
28 -27 -26 0
-28 27 0
-28 26 0
29 -1 -11 0
-29 1 0
-29 11 0
30 -29 -25 0
-30 29 0
-30 25 0
31 -2 -10 0
-31 2 0
-31 10 0
32 -31 -25 0
-32 31 0
-32 25 0
33 30 32 0
-33 -30 0
-33 -32 0
34 28 -33 0
-34 -28 0
-34 33 0
35 -1 -11 0
-35 1 0
-35 11 0
36 -2 -10 0
-36 2 0
-36 10 0
37 -36 25 0
-37 36 0
-37 -25 0
38 36 -25 0
-38 -36 0
-38 25 0
39 38 37 0
-39 -38 0
-39 -37 0
40 -35 -39 0
-40 35 0
-40 39 0
41 35 39 0
-41 -35 0
-41 -39 0
42 41 40 0
-42 -41 0
-42 -40 0
43 -1 -12 0
-43 1 0
-43 12 0
44 -2 -11 0
-44 2 0
-44 11 0
45 -44 -43 0
-45 44 0
-45 43 0
46 -1 -12 0
-46 1 0
-46 12 0
47 -46 34 0
-47 46 0
-47 -34 0
48 -2 -11 0
-48 2 0
-48 11 0
49 -48 34 0
-49 48 0
-49 -34 0
50 49 47 0
-50 -49 0
-50 -47 0
51 45 -50 0
-51 -45 0
-51 50 0
52 -1 -12 0
-52 1 0
-52 12 0
53 -2 -11 0
-53 2 0
-53 11 0
54 -53 -34 0
-54 53 0
-54 34 0
55 53 34 0
-55 -53 0
-55 -34 0
56 54 55 0
-56 -54 0
-56 -55 0
57 -52 -56 0
-57 52 0
-57 56 0
58 52 56 0
-58 -52 0
-58 -56 0
59 58 57 0
-59 -58 0
-59 -57 0
60 -1 -13 0
-60 1 0
-60 13 0
61 -2 -12 0
-61 2 0
-61 12 0
62 -61 -60 0
-62 61 0
-62 60 0
63 -1 -13 0
-63 1 0
-63 13 0
64 -63 51 0
-64 63 0
-64 -51 0
65 -2 -12 0
-65 2 0
-65 12 0
66 -65 51 0
-66 65 0
-66 -51 0
67 64 66 0
-67 -64 0
-67 -66 0
68 62 -67 0
-68 -62 0
-68 67 0
69 -1 -13 0
-69 1 0
-69 13 0
70 -2 -12 0
-70 2 0
-70 12 0
71 -70 -51 0
-71 70 0
-71 51 0
72 70 51 0
-72 -70 0
-72 -51 0
73 72 71 0
-73 -72 0
-73 -71 0
74 -69 -73 0
-74 69 0
-74 73 0
75 69 73 0
-75 -69 0
-75 -73 0
76 74 75 0
-76 -74 0
-76 -75 0
77 -1 -14 0
-77 1 0
-77 14 0
78 -2 -13 0
-78 2 0
-78 13 0
79 -78 -77 0
-79 78 0
-79 77 0
80 -1 -14 0
-80 1 0
-80 14 0
81 -80 68 0
-81 80 0
-81 -68 0
82 -2 -13 0
-82 2 0
-82 13 0
83 -82 68 0
-83 82 0
-83 -68 0
84 81 83 0
-84 -81 0
-84 -83 0
85 79 -84 0
-85 -79 0
-85 84 0
86 -1 -14 0
-86 1 0
-86 14 0
87 -2 -13 0
-87 2 0
-87 13 0
88 -87 -68 0
-88 87 0
-88 68 0
89 87 68 0
-89 -87 0
-89 -68 0
90 88 89 0
-90 -88 0
-90 -89 0
91 -86 -90 0
-91 86 0
-91 90 0
92 86 90 0
-92 -86 0
-92 -90 0
93 91 92 0
-93 -91 0
-93 -92 0
94 -1 -15 0
-94 1 0
-94 15 0
95 -2 -14 0
-95 2 0
-95 14 0
96 -95 -94 0
-96 95 0
-96 94 0
97 -1 -15 0
-97 1 0
-97 15 0
98 -97 85 0
-98 97 0
-98 -85 0
99 -2 -14 0
-99 2 0
-99 14 0
100 -99 85 0
-100 99 0
-100 -85 0
101 100 98 0
-101 -100 0
-101 -98 0
102 96 -101 0
-102 -96 0
-102 101 0
103 -1 -15 0
-103 1 0
-103 15 0
104 -2 -14 0
-104 2 0
-104 14 0
105 -104 -85 0
-105 104 0
-105 85 0
106 104 85 0
-106 -104 0
-106 -85 0
107 106 105 0
-107 -106 0
-107 -105 0
108 -103 -107 0
-108 103 0
-108 107 0
109 103 107 0
-109 -103 0
-109 -107 0
110 109 108 0
-110 -109 0
-110 -108 0
111 -1 -16 0
-111 1 0
-111 16 0
112 -2 -15 0
-112 2 0
-112 15 0
113 -112 -111 0
-113 112 0
-113 111 0
114 -1 -16 0
-114 1 0
-114 16 0
115 -114 102 0
-115 114 0
-115 -102 0
116 -2 -15 0
-116 2 0
-116 15 0
117 -116 102 0
-117 116 0
-117 -102 0
118 115 117 0
-118 -115 0
-118 -117 0
119 113 -118 0
-119 -113 0
-119 118 0
120 -1 -16 0
-120 1 0
-120 16 0
121 -2 -15 0
-121 2 0
-121 15 0
122 -121 -102 0
-122 121 0
-122 102 0
123 121 102 0
-123 -121 0
-123 -102 0
124 122 123 0
-124 -122 0
-124 -123 0
125 -120 -124 0
-125 120 0
-125 124 0
126 120 124 0
-126 -120 0
-126 -124 0
127 125 126 0
-127 -125 0
-127 -126 0
128 -1 -17 0
-128 1 0
-128 17 0
129 -2 -16 0
-129 2 0
-129 16 0
130 -129 -128 0
-130 129 0
-130 128 0
131 -1 -17 0
-131 1 0
-131 17 0
132 -131 119 0
-132 131 0
-132 -119 0
133 -2 -16 0
-133 2 0
-133 16 0
134 -133 119 0
-134 133 0
-134 -119 0
135 134 132 0
-135 -134 0
-135 -132 0
136 130 -135 0
-136 -130 0
-136 135 0
137 -1 -17 0
-137 1 0
-137 17 0
138 -2 -16 0
-138 2 0
-138 16 0
139 -138 -119 0
-139 138 0
-139 119 0
140 138 119 0
-140 -138 0
-140 -119 0
141 139 140 0
-141 -139 0
-141 -140 0
142 -137 -141 0
-142 137 0
-142 141 0
143 137 141 0
-143 -137 0
-143 -141 0
144 142 143 0
-144 -142 0
-144 -143 0
145 -2 -17 0
-145 2 0
-145 17 0
146 -145 136 0
-146 145 0
-146 -136 0
147 -2 -17 0
-147 2 0
-147 17 0
148 -147 -136 0
-148 147 0
-148 136 0
149 147 136 0
-149 -147 0
-149 -136 0
150 149 148 0
-150 -149 0
-150 -148 0
151 -3 -9 0
-151 3 0
-151 9 0
152 151 42 0
-152 -151 0
-152 -42 0
153 -151 -42 0
-153 151 0
-153 42 0
154 153 152 0
-154 -153 0
-154 -152 0
155 -3 -9 0
-155 3 0
-155 9 0
156 -155 42 0
-156 155 0
-156 -42 0
157 -3 -10 0
-157 3 0
-157 10 0
158 -157 59 0
-158 157 0
-158 -59 0
159 59 -156 0
-159 -59 0
-159 156 0
160 -3 -10 0
-160 3 0
-160 10 0
161 -160 -156 0
-161 160 0
-161 156 0
162 161 159 0
-162 -161 0
-162 -159 0
163 158 -162 0
-163 -158 0
-163 162 0
164 -3 -10 0
-164 3 0
-164 10 0
165 -164 156 0
-165 164 0
-165 -156 0
166 164 -156 0
-166 -164 0
-166 156 0
167 166 165 0
-167 -166 0
-167 -165 0
168 59 -167 0
-168 -59 0
-168 167 0
169 -59 167 0
-169 59 0
-169 -167 0
170 168 169 0
-170 -168 0
-170 -169 0
171 -3 -11 0
-171 3 0
-171 11 0
172 -171 76 0
-172 171 0
-172 -76 0
173 76 163 0
-173 -76 0
-173 -163 0
174 -3 -11 0
-174 3 0
-174 11 0
175 -174 163 0
-175 174 0
-175 -163 0
176 173 175 0
-176 -173 0
-176 -175 0
177 172 -176 0
-177 -172 0
-177 176 0
178 -3 -11 0
-178 3 0
-178 11 0
179 -178 -163 0
-179 178 0
-179 163 0
180 178 163 0
-180 -178 0
-180 -163 0
181 179 180 0
-181 -179 0
-181 -180 0
182 76 -181 0
-182 -76 0
-182 181 0
183 -76 181 0
-183 76 0
-183 -181 0
184 183 182 0
-184 -183 0
-184 -182 0
185 -3 -12 0
-185 3 0
-185 12 0
186 -185 93 0
-186 185 0
-186 -93 0
187 177 93 0
-187 -177 0
-187 -93 0
188 -3 -12 0
-188 3 0
-188 12 0
189 -188 177 0
-189 188 0
-189 -177 0
190 189 187 0
-190 -189 0
-190 -187 0
191 186 -190 0
-191 -186 0
-191 190 0
192 -3 -12 0
-192 3 0
-192 12 0
193 -192 -177 0
-193 192 0
-193 177 0
194 192 177 0
-194 -192 0
-194 -177 0
195 194 193 0
-195 -194 0
-195 -193 0
196 -195 93 0
-196 195 0
-196 -93 0
197 195 -93 0
-197 -195 0
-197 93 0
198 197 196 0
-198 -197 0
-198 -196 0
199 -3 -13 0
-199 3 0
-199 13 0
200 -199 110 0
-200 199 0
-200 -110 0
201 110 191 0
-201 -110 0
-201 -191 0
202 -3 -13 0
-202 3 0
-202 13 0
203 -202 191 0
-203 202 0
-203 -191 0
204 201 203 0
-204 -201 0
-204 -203 0
205 200 -204 0
-205 -200 0
-205 204 0
206 -3 -13 0
-206 3 0
-206 13 0
207 -206 -191 0
-207 206 0
-207 191 0
208 206 191 0
-208 -206 0
-208 -191 0
209 207 208 0
-209 -207 0
-209 -208 0
210 -209 110 0
-210 209 0
-210 -110 0
211 209 -110 0
-211 -209 0
-211 110 0
212 210 211 0
-212 -210 0
-212 -211 0
213 -3 -14 0
-213 3 0
-213 14 0
214 -213 127 0
-214 213 0
-214 -127 0
215 127 205 0
-215 -127 0
-215 -205 0
216 -3 -14 0
-216 3 0
-216 14 0
217 -216 205 0
-217 216 0
-217 -205 0
218 215 217 0
-218 -215 0
-218 -217 0
219 214 -218 0
-219 -214 0
-219 218 0
220 -3 -14 0
-220 3 0
-220 14 0
221 -220 -205 0
-221 220 0
-221 205 0
222 220 205 0
-222 -220 0
-222 -205 0
223 221 222 0
-223 -221 0
-223 -222 0
224 127 -223 0
-224 -127 0
-224 223 0
225 -127 223 0
-225 127 0
-225 -223 0
226 224 225 0
-226 -224 0
-226 -225 0
227 -3 -15 0
-227 3 0
-227 15 0
228 -227 144 0
-228 227 0
-228 -144 0
229 144 219 0
-229 -144 0
-229 -219 0
230 -3 -15 0
-230 3 0
-230 15 0
231 -230 219 0
-231 230 0
-231 -219 0
232 229 231 0
-232 -229 0
-232 -231 0
233 228 -232 0
-233 -228 0
-233 232 0
234 -3 -15 0
-234 3 0
-234 15 0
235 -234 -219 0
-235 234 0
-235 219 0
236 234 219 0
-236 -234 0
-236 -219 0
237 235 236 0
-237 -235 0
-237 -236 0
238 144 -237 0
-238 -144 0
-238 237 0
239 -144 237 0
-239 144 0
-239 -237 0
240 239 238 0
-240 -239 0
-240 -238 0
241 -3 -16 0
-241 3 0
-241 16 0
242 -241 150 0
-242 241 0
-242 -150 0
243 233 150 0
-243 -233 0
-243 -150 0
244 -3 -16 0
-244 3 0
-244 16 0
245 -244 233 0
-245 244 0
-245 -233 0
246 245 243 0
-246 -245 0
-246 -243 0
247 242 -246 0
-247 -242 0
-247 246 0
248 -3 -16 0
-248 3 0
-248 16 0
249 -248 -233 0
-249 248 0
-249 233 0
250 248 233 0
-250 -248 0
-250 -233 0
251 250 249 0
-251 -250 0
-251 -249 0
252 150 -251 0
-252 -150 0
-252 251 0
253 -150 251 0
-253 150 0
-253 -251 0
254 252 253 0
-254 -252 0
-254 -253 0
255 -3 -17 0
-255 3 0
-255 17 0
256 -255 -146 0
-256 255 0
-256 146 0
257 -146 247 0
-257 146 0
-257 -247 0
258 -3 -17 0
-258 3 0
-258 17 0
259 -258 247 0
-259 258 0
-259 -247 0
260 257 259 0
-260 -257 0
-260 -259 0
261 -260 256 0
-261 260 0
-261 -256 0
262 -3 -17 0
-262 3 0
-262 17 0
263 -262 -247 0
-263 262 0
-263 247 0
264 262 247 0
-264 -262 0
-264 -247 0
265 263 264 0
-265 -263 0
-265 -264 0
266 -265 -146 0
-266 265 0
-266 146 0
267 265 146 0
-267 -265 0
-267 -146 0
268 267 266 0
-268 -267 0
-268 -266 0
269 -4 -9 0
-269 4 0
-269 9 0
270 269 170 0
-270 -269 0
-270 -170 0
271 -269 -170 0
-271 269 0
-271 170 0
272 271 270 0
-272 -271 0
-272 -270 0
273 -4 -9 0
-273 4 0
-273 9 0
274 -273 170 0
-274 273 0
-274 -170 0
275 -4 -10 0
-275 4 0
-275 10 0
276 -275 184 0
-276 275 0
-276 -184 0
277 184 -274 0
-277 -184 0
-277 274 0
278 -4 -10 0
-278 4 0
-278 10 0
279 -278 -274 0
-279 278 0
-279 274 0
280 277 279 0
-280 -277 0
-280 -279 0
281 -280 276 0
-281 280 0
-281 -276 0
282 -4 -10 0
-282 4 0
-282 10 0
283 -282 274 0
-283 282 0
-283 -274 0
284 282 -274 0
-284 -282 0
-284 274 0
285 284 283 0
-285 -284 0
-285 -283 0
286 184 -285 0
-286 -184 0
-286 285 0
287 -184 285 0
-287 184 0
-287 -285 0
288 286 287 0
-288 -286 0
-288 -287 0
289 -4 -11 0
-289 4 0
-289 11 0
290 -289 198 0
-290 289 0
-290 -198 0
291 198 281 0
-291 -198 0
-291 -281 0
292 -4 -11 0
-292 4 0
-292 11 0
293 -292 281 0
-293 292 0
-293 -281 0
294 291 293 0
-294 -291 0
-294 -293 0
295 290 -294 0
-295 -290 0
-295 294 0
296 -4 -11 0
-296 4 0
-296 11 0
297 -296 -281 0
-297 296 0
-297 281 0
298 296 281 0
-298 -296 0
-298 -281 0
299 298 297 0
-299 -298 0
-299 -297 0
300 198 -299 0
-300 -198 0
-300 299 0
301 -198 299 0
-301 198 0
-301 -299 0
302 300 301 0
-302 -300 0
-302 -301 0
303 -4 -12 0
-303 4 0
-303 12 0
304 -303 212 0
-304 303 0
-304 -212 0
305 295 212 0
-305 -295 0
-305 -212 0
306 -4 -12 0
-306 4 0
-306 12 0
307 -306 295 0
-307 306 0
-307 -295 0
308 307 305 0
-308 -307 0
-308 -305 0
309 304 -308 0
-309 -304 0
-309 308 0
310 -4 -12 0
-310 4 0
-310 12 0
311 -310 -295 0
-311 310 0
-311 295 0
312 310 295 0
-312 -310 0
-312 -295 0
313 311 312 0
-313 -311 0
-313 -312 0
314 -313 212 0
-314 313 0
-314 -212 0
315 313 -212 0
-315 -313 0
-315 212 0
316 314 315 0
-316 -314 0
-316 -315 0
317 -4 -13 0
-317 4 0
-317 13 0
318 -317 226 0
-318 317 0
-318 -226 0
319 226 309 0
-319 -226 0
-319 -309 0
320 -4 -13 0
-320 4 0
-320 13 0
321 -320 309 0
-321 320 0
-321 -309 0
322 319 321 0
-322 -319 0
-322 -321 0
323 318 -322 0
-323 -318 0
-323 322 0
324 -4 -13 0
-324 4 0
-324 13 0
325 -324 -309 0
-325 324 0
-325 309 0
326 324 309 0
-326 -324 0
-326 -309 0
327 325 326 0
-327 -325 0
-327 -326 0
328 226 -327 0
-328 -226 0
-328 327 0
329 -226 327 0
-329 226 0
-329 -327 0
330 328 329 0
-330 -328 0
-330 -329 0
331 -4 -14 0
-331 4 0
-331 14 0
332 -331 240 0
-332 331 0
-332 -240 0
333 240 323 0
-333 -240 0
-333 -323 0
334 -4 -14 0
-334 4 0
-334 14 0
335 -334 323 0
-335 334 0
-335 -323 0
336 333 335 0
-336 -333 0
-336 -335 0
337 332 -336 0
-337 -332 0
-337 336 0
338 -4 -14 0
-338 4 0
-338 14 0
339 -338 -323 0
-339 338 0
-339 323 0
340 338 323 0
-340 -338 0
-340 -323 0
341 340 339 0
-341 -340 0
-341 -339 0
342 -341 240 0
-342 341 0
-342 -240 0
343 341 -240 0
-343 -341 0
-343 240 0
344 342 343 0
-344 -342 0
-344 -343 0
345 -4 -15 0
-345 4 0
-345 15 0
346 -345 254 0
-346 345 0
-346 -254 0
347 254 337 0
-347 -254 0
-347 -337 0
348 -4 -15 0
-348 4 0
-348 15 0
349 -348 337 0
-349 348 0
-349 -337 0
350 349 347 0
-350 -349 0
-350 -347 0
351 346 -350 0
-351 -346 0
-351 350 0
352 -4 -15 0
-352 4 0
-352 15 0
353 -352 -337 0
-353 352 0
-353 337 0
354 352 337 0
-354 -352 0
-354 -337 0
355 354 353 0
-355 -354 0
-355 -353 0
356 254 -355 0
-356 -254 0
-356 355 0
357 -254 355 0
-357 254 0
-357 -355 0
358 357 356 0
-358 -357 0
-358 -356 0
359 -4 -16 0
-359 4 0
-359 16 0
360 -359 268 0
-360 359 0
-360 -268 0
361 351 268 0
-361 -351 0
-361 -268 0
362 -4 -16 0
-362 4 0
-362 16 0
363 -362 351 0
-363 362 0
-363 -351 0
364 363 361 0
-364 -363 0
-364 -361 0
365 -364 360 0
-365 364 0
-365 -360 0
366 -4 -16 0
-366 4 0
-366 16 0
367 -366 -351 0
-367 366 0
-367 351 0
368 366 351 0
-368 -366 0
-368 -351 0
369 367 368 0
-369 -367 0
-369 -368 0
370 268 -369 0
-370 -268 0
-370 369 0
371 -268 369 0
-371 268 0
-371 -369 0
372 370 371 0
-372 -370 0
-372 -371 0
373 -4 -17 0
-373 4 0
-373 17 0
374 -373 261 0
-374 373 0
-374 -261 0
375 261 365 0
-375 -261 0
-375 -365 0
376 -4 -17 0
-376 4 0
-376 17 0
377 -376 365 0
-377 376 0
-377 -365 0
378 375 377 0
-378 -375 0
-378 -377 0
379 374 -378 0
-379 -374 0
-379 378 0
380 -4 -17 0
-380 4 0
-380 17 0
381 -380 -365 0
-381 380 0
-381 365 0
382 380 365 0
-382 -380 0
-382 -365 0
383 381 382 0
-383 -381 0
-383 -382 0
384 261 -383 0
-384 -261 0
-384 383 0
385 -261 383 0
-385 261 0
-385 -383 0
386 384 385 0
-386 -384 0
-386 -385 0
387 -5 -9 0
-387 5 0
-387 9 0
388 387 288 0
-388 -387 0
-388 -288 0
389 -387 -288 0
-389 387 0
-389 288 0
390 389 388 0
-390 -389 0
-390 -388 0
391 -5 -9 0
-391 5 0
-391 9 0
392 -391 288 0
-392 391 0
-392 -288 0
393 -5 -10 0
-393 5 0
-393 10 0
394 -393 302 0
-394 393 0
-394 -302 0
395 -392 302 0
-395 392 0
-395 -302 0
396 -5 -10 0
-396 5 0
-396 10 0
397 -396 -392 0
-397 396 0
-397 392 0
398 397 395 0
-398 -397 0
-398 -395 0
399 -398 394 0
-399 398 0
-399 -394 0
400 -5 -10 0
-400 5 0
-400 10 0
401 -400 392 0
-401 400 0
-401 -392 0
402 400 -392 0
-402 -400 0
-402 392 0
403 402 401 0
-403 -402 0
-403 -401 0
404 302 -403 0
-404 -302 0
-404 403 0
405 -302 403 0
-405 302 0
-405 -403 0
406 405 404 0
-406 -405 0
-406 -404 0
407 -5 -11 0
-407 5 0
-407 11 0
408 -407 316 0
-408 407 0
-408 -316 0
409 399 316 0
-409 -399 0
-409 -316 0
410 -5 -11 0
-410 5 0
-410 11 0
411 -410 399 0
-411 410 0
-411 -399 0
412 411 409 0
-412 -411 0
-412 -409 0
413 -412 408 0
-413 412 0
-413 -408 0
414 -5 -11 0
-414 5 0
-414 11 0
415 -414 -399 0
-415 414 0
-415 399 0
416 414 399 0
-416 -414 0
-416 -399 0
417 415 416 0
-417 -415 0
-417 -416 0
418 316 -417 0
-418 -316 0
-418 417 0
419 -316 417 0
-419 316 0
-419 -417 0
420 418 419 0
-420 -418 0
-420 -419 0
421 -5 -12 0
-421 5 0
-421 12 0
422 -421 330 0
-422 421 0
-422 -330 0
423 330 413 0
-423 -330 0
-423 -413 0
424 -5 -12 0
-424 5 0
-424 12 0
425 -424 413 0
-425 424 0
-425 -413 0
426 423 425 0
-426 -423 0
-426 -425 0
427 422 -426 0
-427 -422 0
-427 426 0
428 -5 -12 0
-428 5 0
-428 12 0
429 -428 -413 0
-429 428 0
-429 413 0
430 428 413 0
-430 -428 0
-430 -413 0
431 429 430 0
-431 -429 0
-431 -430 0
432 -431 330 0
-432 431 0
-432 -330 0
433 431 -330 0
-433 -431 0
-433 330 0
434 432 433 0
-434 -432 0
-434 -433 0
435 -5 -13 0
-435 5 0
-435 13 0
436 -435 344 0
-436 435 0
-436 -344 0
437 427 344 0
-437 -427 0
-437 -344 0
438 -5 -13 0
-438 5 0
-438 13 0
439 -438 427 0
-439 438 0
-439 -427 0
440 439 437 0
-440 -439 0
-440 -437 0
441 -440 436 0
-441 440 0
-441 -436 0
442 -5 -13 0
-442 5 0
-442 13 0
443 -442 -427 0
-443 442 0
-443 427 0
444 442 427 0
-444 -442 0
-444 -427 0
445 444 443 0
-445 -444 0
-445 -443 0
446 344 -445 0
-446 -344 0
-446 445 0
447 -344 445 0
-447 344 0
-447 -445 0
448 447 446 0
-448 -447 0
-448 -446 0
449 -5 -14 0
-449 5 0
-449 14 0
450 -449 358 0
-450 449 0
-450 -358 0
451 441 358 0
-451 -441 0
-451 -358 0
452 -5 -14 0
-452 5 0
-452 14 0
453 -452 441 0
-453 452 0
-453 -441 0
454 453 451 0
-454 -453 0
-454 -451 0
455 -454 450 0
-455 454 0
-455 -450 0
456 -5 -14 0
-456 5 0
-456 14 0
457 -456 -441 0
-457 456 0
-457 441 0
458 456 441 0
-458 -456 0
-458 -441 0
459 457 458 0
-459 -457 0
-459 -458 0
460 358 -459 0
-460 -358 0
-460 459 0
461 -358 459 0
-461 358 0
-461 -459 0
462 461 460 0
-462 -461 0
-462 -460 0
463 -5 -15 0
-463 5 0
-463 15 0
464 -463 372 0
-464 463 0
-464 -372 0
465 455 372 0
-465 -455 0
-465 -372 0
466 -5 -15 0
-466 5 0
-466 15 0
467 -466 455 0
-467 466 0
-467 -455 0
468 467 465 0
-468 -467 0
-468 -465 0
469 -468 464 0
-469 468 0
-469 -464 0
470 -5 -15 0
-470 5 0
-470 15 0
471 -470 -455 0
-471 470 0
-471 455 0
472 470 455 0
-472 -470 0
-472 -455 0
473 471 472 0
-473 -471 0
-473 -472 0
474 372 -473 0
-474 -372 0
-474 473 0
475 -372 473 0
-475 372 0
-475 -473 0
476 474 475 0
-476 -474 0
-476 -475 0
477 -5 -16 0
-477 5 0
-477 16 0
478 -477 386 0
-478 477 0
-478 -386 0
479 386 469 0
-479 -386 0
-479 -469 0
480 -5 -16 0
-480 5 0
-480 16 0
481 -480 469 0
-481 480 0
-481 -469 0
482 479 481 0
-482 -479 0
-482 -481 0
483 478 -482 0
-483 -478 0
-483 482 0
484 -5 -16 0
-484 5 0
-484 16 0
485 -484 -469 0
-485 484 0
-485 469 0
486 484 469 0
-486 -484 0
-486 -469 0
487 485 486 0
-487 -485 0
-487 -486 0
488 386 -487 0
-488 -386 0
-488 487 0
489 -386 487 0
-489 386 0
-489 -487 0
490 488 489 0
-490 -488 0
-490 -489 0
491 -5 -17 0
-491 5 0
-491 17 0
492 -491 379 0
-492 491 0
-492 -379 0
493 379 483 0
-493 -379 0
-493 -483 0
494 -5 -17 0
-494 5 0
-494 17 0
495 -494 483 0
-495 494 0
-495 -483 0
496 493 495 0
-496 -493 0
-496 -495 0
497 -496 492 0
-497 496 0
-497 -492 0
498 -5 -17 0
-498 5 0
-498 17 0
499 -498 -483 0
-499 498 0
-499 483 0
500 498 483 0
-500 -498 0
-500 -483 0
501 500 499 0
-501 -500 0
-501 -499 0
502 379 -501 0
-502 -379 0
-502 501 0
503 -379 501 0
-503 379 0
-503 -501 0
504 503 502 0
-504 -503 0
-504 -502 0
505 -6 -9 0
-505 6 0
-505 9 0
506 505 406 0
-506 -505 0
-506 -406 0
507 -505 -406 0
-507 505 0
-507 406 0
508 507 506 0
-508 -507 0
-508 -506 0
509 -6 -9 0
-509 6 0
-509 9 0
510 -509 406 0
-510 509 0
-510 -406 0
511 -6 -10 0
-511 6 0
-511 10 0
512 -511 420 0
-512 511 0
-512 -420 0
513 -510 420 0
-513 510 0
-513 -420 0
514 -6 -10 0
-514 6 0
-514 10 0
515 -514 -510 0
-515 514 0
-515 510 0
516 513 515 0
-516 -513 0
-516 -515 0
517 -516 512 0
-517 516 0
-517 -512 0
518 -6 -10 0
-518 6 0
-518 10 0
519 -518 510 0
-519 518 0
-519 -510 0
520 518 -510 0
-520 -518 0
-520 510 0
521 520 519 0
-521 -520 0
-521 -519 0
522 -521 420 0
-522 521 0
-522 -420 0
523 521 -420 0
-523 -521 0
-523 420 0
524 522 523 0
-524 -522 0
-524 -523 0
525 -6 -11 0
-525 6 0
-525 11 0
526 -525 434 0
-526 525 0
-526 -434 0
527 517 434 0
-527 -517 0
-527 -434 0
528 -6 -11 0
-528 6 0
-528 11 0
529 -528 517 0
-529 528 0
-529 -517 0
530 527 529 0
-530 -527 0
-530 -529 0
531 -530 526 0
-531 530 0
-531 -526 0
532 -6 -11 0
-532 6 0
-532 11 0
533 -532 -517 0
-533 532 0
-533 517 0
534 532 517 0
-534 -532 0
-534 -517 0
535 534 533 0
-535 -534 0
-535 -533 0
536 -535 434 0
-536 535 0
-536 -434 0
537 535 -434 0
-537 -535 0
-537 434 0
538 537 536 0
-538 -537 0
-538 -536 0
539 -6 -12 0
-539 6 0
-539 12 0
540 -539 448 0
-540 539 0
-540 -448 0
541 448 531 0
-541 -448 0
-541 -531 0
542 -6 -12 0
-542 6 0
-542 12 0
543 -542 531 0
-543 542 0
-543 -531 0
544 543 541 0
-544 -543 0
-544 -541 0
545 540 -544 0
-545 -540 0
-545 544 0
546 -6 -12 0
-546 6 0
-546 12 0
547 -546 -531 0
-547 546 0
-547 531 0
548 546 531 0
-548 -546 0
-548 -531 0
549 548 547 0
-549 -548 0
-549 -547 0
550 -549 448 0
-550 549 0
-550 -448 0
551 549 -448 0
-551 -549 0
-551 448 0
552 550 551 0
-552 -550 0
-552 -551 0
553 -6 -13 0
-553 6 0
-553 13 0
554 -553 462 0
-554 553 0
-554 -462 0
555 545 462 0
-555 -545 0
-555 -462 0
556 -6 -13 0
-556 6 0
-556 13 0
557 -556 545 0
-557 556 0
-557 -545 0
558 555 557 0
-558 -555 0
-558 -557 0
559 -558 554 0
-559 558 0
-559 -554 0
560 -6 -13 0
-560 6 0
-560 13 0
561 -560 -545 0
-561 560 0
-561 545 0
562 560 545 0
-562 -560 0
-562 -545 0
563 562 561 0
-563 -562 0
-563 -561 0
564 -563 462 0
-564 563 0
-564 -462 0
565 563 -462 0
-565 -563 0
-565 462 0
566 565 564 0
-566 -565 0
-566 -564 0
567 -6 -14 0
-567 6 0
-567 14 0
568 -567 476 0
-568 567 0
-568 -476 0
569 476 559 0
-569 -476 0
-569 -559 0
570 -6 -14 0
-570 6 0
-570 14 0
571 -570 559 0
-571 570 0
-571 -559 0
572 569 571 0
-572 -569 0
-572 -571 0
573 568 -572 0
-573 -568 0
-573 572 0
574 -6 -14 0
-574 6 0
-574 14 0
575 -574 -559 0
-575 574 0
-575 559 0
576 574 559 0
-576 -574 0
-576 -559 0
577 575 576 0
-577 -575 0
-577 -576 0
578 476 -577 0
-578 -476 0
-578 577 0
579 -476 577 0
-579 476 0
-579 -577 0
580 579 578 0
-580 -579 0
-580 -578 0
581 -6 -15 0
-581 6 0
-581 15 0
582 -581 490 0
-582 581 0
-582 -490 0
583 573 490 0
-583 -573 0
-583 -490 0
584 -6 -15 0
-584 6 0
-584 15 0
585 -584 573 0
-585 584 0
-585 -573 0
586 585 583 0
-586 -585 0
-586 -583 0
587 -586 582 0
-587 586 0
-587 -582 0
588 -6 -15 0
-588 6 0
-588 15 0
589 -588 -573 0
-589 588 0
-589 573 0
590 588 573 0
-590 -588 0
-590 -573 0
591 590 589 0
-591 -590 0
-591 -589 0
592 -591 490 0
-592 591 0
-592 -490 0
593 591 -490 0
-593 -591 0
-593 490 0
594 593 592 0
-594 -593 0
-594 -592 0
595 -6 -16 0
-595 6 0
-595 16 0
596 -595 504 0
-596 595 0
-596 -504 0
597 587 504 0
-597 -587 0
-597 -504 0
598 -6 -16 0
-598 6 0
-598 16 0
599 -598 587 0
-599 598 0
-599 -587 0
600 597 599 0
-600 -597 0
-600 -599 0
601 -600 596 0
-601 600 0
-601 -596 0
602 -6 -16 0
-602 6 0
-602 16 0
603 -602 -587 0
-603 602 0
-603 587 0
604 602 587 0
-604 -602 0
-604 -587 0
605 603 604 0
-605 -603 0
-605 -604 0
606 -605 504 0
-606 605 0
-606 -504 0
607 605 -504 0
-607 -605 0
-607 504 0
608 607 606 0
-608 -607 0
-608 -606 0
609 -6 -17 0
-609 6 0
-609 17 0
610 -609 497 0
-610 609 0
-610 -497 0
611 601 497 0
-611 -601 0
-611 -497 0
612 -6 -17 0
-612 6 0
-612 17 0
613 -612 601 0
-613 612 0
-613 -601 0
614 613 611 0
-614 -613 0
-614 -611 0
615 -614 610 0
-615 614 0
-615 -610 0
616 -6 -17 0
-616 6 0
-616 17 0
617 -616 -601 0
-617 616 0
-617 601 0
618 616 601 0
-618 -616 0
-618 -601 0
619 617 618 0
-619 -617 0
-619 -618 0
620 -619 497 0
-620 619 0
-620 -497 0
621 619 -497 0
-621 -619 0
-621 497 0
622 621 620 0
-622 -621 0
-622 -620 0
623 -7 -9 0
-623 7 0
-623 9 0
624 623 524 0
-624 -623 0
-624 -524 0
625 -623 -524 0
-625 623 0
-625 524 0
626 625 624 0
-626 -625 0
-626 -624 0
627 -7 -9 0
-627 7 0
-627 9 0
628 -627 524 0
-628 627 0
-628 -524 0
629 -7 -10 0
-629 7 0
-629 10 0
630 -629 538 0
-630 629 0
-630 -538 0
631 -628 538 0
-631 628 0
-631 -538 0
632 -7 -10 0
-632 7 0
-632 10 0
633 -632 -628 0
-633 632 0
-633 628 0
634 633 631 0
-634 -633 0
-634 -631 0
635 630 -634 0
-635 -630 0
-635 634 0
636 -7 -10 0
-636 7 0
-636 10 0
637 -636 628 0
-637 636 0
-637 -628 0
638 636 -628 0
-638 -636 0
-638 628 0
639 637 638 0
-639 -637 0
-639 -638 0
640 538 -639 0
-640 -538 0
-640 639 0
641 -538 639 0
-641 538 0
-641 -639 0
642 641 640 0
-642 -641 0
-642 -640 0
643 -7 -11 0
-643 7 0
-643 11 0
644 -643 552 0
-644 643 0
-644 -552 0
645 635 552 0
-645 -635 0
-645 -552 0
646 -7 -11 0
-646 7 0
-646 11 0
647 -646 635 0
-647 646 0
-647 -635 0
648 647 645 0
-648 -647 0
-648 -645 0
649 -648 644 0
-649 648 0
-649 -644 0
650 -7 -11 0
-650 7 0
-650 11 0
651 -650 -635 0
-651 650 0
-651 635 0
652 650 635 0
-652 -650 0
-652 -635 0
653 651 652 0
-653 -651 0
-653 -652 0
654 -653 552 0
-654 653 0
-654 -552 0
655 653 -552 0
-655 -653 0
-655 552 0
656 655 654 0
-656 -655 0
-656 -654 0
657 -7 -12 0
-657 7 0
-657 12 0
658 -657 566 0
-658 657 0
-658 -566 0
659 649 566 0
-659 -649 0
-659 -566 0
660 -7 -12 0
-660 7 0
-660 12 0
661 -660 649 0
-661 660 0
-661 -649 0
662 659 661 0
-662 -659 0
-662 -661 0
663 658 -662 0
-663 -658 0
-663 662 0
664 -7 -12 0
-664 7 0
-664 12 0
665 -664 -649 0
-665 664 0
-665 649 0
666 664 649 0
-666 -664 0
-666 -649 0
667 665 666 0
-667 -665 0
-667 -666 0
668 -667 566 0
-668 667 0
-668 -566 0
669 667 -566 0
-669 -667 0
-669 566 0
670 668 669 0
-670 -668 0
-670 -669 0
671 -7 -13 0
-671 7 0
-671 13 0
672 -671 580 0
-672 671 0
-672 -580 0
673 580 663 0
-673 -580 0
-673 -663 0
674 -7 -13 0
-674 7 0
-674 13 0
675 -674 663 0
-675 674 0
-675 -663 0
676 673 675 0
-676 -673 0
-676 -675 0
677 -676 672 0
-677 676 0
-677 -672 0
678 -7 -13 0
-678 7 0
-678 13 0
679 -678 -663 0
-679 678 0
-679 663 0
680 678 663 0
-680 -678 0
-680 -663 0
681 680 679 0
-681 -680 0
-681 -679 0
682 580 -681 0
-682 -580 0
-682 681 0
683 -580 681 0
-683 580 0
-683 -681 0
684 682 683 0
-684 -682 0
-684 -683 0
685 -7 -14 0
-685 7 0
-685 14 0
686 -685 594 0
-686 685 0
-686 -594 0
687 594 677 0
-687 -594 0
-687 -677 0
688 -7 -14 0
-688 7 0
-688 14 0
689 -688 677 0
-689 688 0
-689 -677 0
690 687 689 0
-690 -687 0
-690 -689 0
691 686 -690 0
-691 -686 0
-691 690 0
692 -7 -14 0
-692 7 0
-692 14 0
693 -692 -677 0
-693 692 0
-693 677 0
694 692 677 0
-694 -692 0
-694 -677 0
695 693 694 0
-695 -693 0
-695 -694 0
696 594 -695 0
-696 -594 0
-696 695 0
697 -594 695 0
-697 594 0
-697 -695 0
698 697 696 0
-698 -697 0
-698 -696 0
699 -7 -15 0
-699 7 0
-699 15 0
700 -699 608 0
-700 699 0
-700 -608 0
701 608 691 0
-701 -608 0
-701 -691 0
702 -7 -15 0
-702 7 0
-702 15 0
703 -702 691 0
-703 702 0
-703 -691 0
704 703 701 0
-704 -703 0
-704 -701 0
705 700 -704 0
-705 -700 0
-705 704 0
706 -7 -15 0
-706 7 0
-706 15 0
707 -706 -691 0
-707 706 0
-707 691 0
708 706 691 0
-708 -706 0
-708 -691 0
709 707 708 0
-709 -707 0
-709 -708 0
710 608 -709 0
-710 -608 0
-710 709 0
711 -608 709 0
-711 608 0
-711 -709 0
712 711 710 0
-712 -711 0
-712 -710 0
713 -7 -16 0
-713 7 0
-713 16 0
714 -713 622 0
-714 713 0
-714 -622 0
715 622 705 0
-715 -622 0
-715 -705 0
716 -7 -16 0
-716 7 0
-716 16 0
717 -716 705 0
-717 716 0
-717 -705 0
718 715 717 0
-718 -715 0
-718 -717 0
719 714 -718 0
-719 -714 0
-719 718 0
720 -7 -16 0
-720 7 0
-720 16 0
721 -720 -705 0
-721 720 0
-721 705 0
722 720 705 0
-722 -720 0
-722 -705 0
723 721 722 0
-723 -721 0
-723 -722 0
724 622 -723 0
-724 -622 0
-724 723 0
725 -622 723 0
-725 622 0
-725 -723 0
726 724 725 0
-726 -724 0
-726 -725 0
727 -7 -17 0
-727 7 0
-727 17 0
728 -727 615 0
-728 727 0
-728 -615 0
729 615 719 0
-729 -615 0
-729 -719 0
730 -7 -17 0
-730 7 0
-730 17 0
731 -730 719 0
-731 730 0
-731 -719 0
732 729 731 0
-732 -729 0
-732 -731 0
733 728 -732 0
-733 -728 0
-733 732 0
734 -7 -17 0
-734 7 0
-734 17 0
735 -734 -719 0
-735 734 0
-735 719 0
736 734 719 0
-736 -734 0
-736 -719 0
737 735 736 0
-737 -735 0
-737 -736 0
738 -737 615 0
-738 737 0
-738 -615 0
739 737 -615 0
-739 -737 0
-739 615 0
740 739 738 0
-740 -739 0
-740 -738 0
741 -8 -9 0
-741 8 0
-741 9 0
742 741 642 0
-742 -741 0
-742 -642 0
743 -741 -642 0
-743 741 0
-743 642 0
744 742 743 0
-744 -742 0
-744 -743 0
745 -8 -9 0
-745 8 0
-745 9 0
746 -745 642 0
-746 745 0
-746 -642 0
747 -8 -10 0
-747 8 0
-747 10 0
748 -747 656 0
-748 747 0
-748 -656 0
749 656 -746 0
-749 -656 0
-749 746 0
750 -8 -10 0
-750 8 0
-750 10 0
751 -750 -746 0
-751 750 0
-751 746 0
752 749 751 0
-752 -749 0
-752 -751 0
753 -752 748 0
-753 752 0
-753 -748 0
754 -8 -10 0
-754 8 0
-754 10 0
755 -754 746 0
-755 754 0
-755 -746 0
756 754 -746 0
-756 -754 0
-756 746 0
757 755 756 0
-757 -755 0
-757 -756 0
758 -757 656 0
-758 757 0
-758 -656 0
759 757 -656 0
-759 -757 0
-759 656 0
760 759 758 0
-760 -759 0
-760 -758 0
761 -8 -11 0
-761 8 0
-761 11 0
762 -761 670 0
-762 761 0
-762 -670 0
763 753 670 0
-763 -753 0
-763 -670 0
764 -8 -11 0
-764 8 0
-764 11 0
765 -764 753 0
-765 764 0
-765 -753 0
766 765 763 0
-766 -765 0
-766 -763 0
767 -766 762 0
-767 766 0
-767 -762 0
768 -8 -11 0
-768 8 0
-768 11 0
769 -768 -753 0
-769 768 0
-769 753 0
770 768 753 0
-770 -768 0
-770 -753 0
771 770 769 0
-771 -770 0
-771 -769 0
772 -771 670 0
-772 771 0
-772 -670 0
773 771 -670 0
-773 -771 0
-773 670 0
774 773 772 0
-774 -773 0
-774 -772 0
775 -8 -12 0
-775 8 0
-775 12 0
776 -775 684 0
-776 775 0
-776 -684 0
777 767 684 0
-777 -767 0
-777 -684 0
778 -8 -12 0
-778 8 0
-778 12 0
779 -778 767 0
-779 778 0
-779 -767 0
780 777 779 0
-780 -777 0
-780 -779 0
781 -780 776 0
-781 780 0
-781 -776 0
782 -8 -12 0
-782 8 0
-782 12 0
783 -782 -767 0
-783 782 0
-783 767 0
784 782 767 0
-784 -782 0
-784 -767 0
785 784 783 0
-785 -784 0
-785 -783 0
786 -785 684 0
-786 785 0
-786 -684 0
787 785 -684 0
-787 -785 0
-787 684 0
788 786 787 0
-788 -786 0
-788 -787 0
789 -8 -13 0
-789 8 0
-789 13 0
790 -789 698 0
-790 789 0
-790 -698 0
791 781 698 0
-791 -781 0
-791 -698 0
792 -8 -13 0
-792 8 0
-792 13 0
793 -792 781 0
-793 792 0
-793 -781 0
794 793 791 0
-794 -793 0
-794 -791 0
795 -794 790 0
-795 794 0
-795 -790 0
796 -8 -13 0
-796 8 0
-796 13 0
797 -796 -781 0
-797 796 0
-797 781 0
798 796 781 0
-798 -796 0
-798 -781 0
799 797 798 0
-799 -797 0
-799 -798 0
800 -799 698 0
-800 799 0
-800 -698 0
801 799 -698 0
-801 -799 0
-801 698 0
802 801 800 0
-802 -801 0
-802 -800 0
803 -8 -14 0
-803 8 0
-803 14 0
804 -803 712 0
-804 803 0
-804 -712 0
805 795 712 0
-805 -795 0
-805 -712 0
806 -8 -14 0
-806 8 0
-806 14 0
807 -806 795 0
-807 806 0
-807 -795 0
808 805 807 0
-808 -805 0
-808 -807 0
809 804 -808 0
-809 -804 0
-809 808 0
810 -8 -14 0
-810 8 0
-810 14 0
811 -810 -795 0
-811 810 0
-811 795 0
812 810 795 0
-812 -810 0
-812 -795 0
813 811 812 0
-813 -811 0
-813 -812 0
814 -813 712 0
-814 813 0
-814 -712 0
815 813 -712 0
-815 -813 0
-815 712 0
816 815 814 0
-816 -815 0
-816 -814 0
817 -8 -15 0
-817 8 0
-817 15 0
818 -817 726 0
-818 817 0
-818 -726 0
819 726 809 0
-819 -726 0
-819 -809 0
820 -8 -15 0
-820 8 0
-820 15 0
821 -820 809 0
-821 820 0
-821 -809 0
822 819 821 0
-822 -819 0
-822 -821 0
823 818 -822 0
-823 -818 0
-823 822 0
824 -8 -15 0
-824 8 0
-824 15 0
825 -824 -809 0
-825 824 0
-825 809 0
826 824 809 0
-826 -824 0
-826 -809 0
827 825 826 0
-827 -825 0
-827 -826 0
828 726 -827 0
-828 -726 0
-828 827 0
829 -726 827 0
-829 726 0
-829 -827 0
830 829 828 0
-830 -829 0
-830 -828 0
831 -8 -16 0
-831 8 0
-831 16 0
832 -831 740 0
-832 831 0
-832 -740 0
833 740 823 0
-833 -740 0
-833 -823 0
834 -8 -16 0
-834 8 0
-834 16 0
835 -834 823 0
-835 834 0
-835 -823 0
836 835 833 0
-836 -835 0
-836 -833 0
837 832 -836 0
-837 -832 0
-837 836 0
838 -8 -16 0
-838 8 0
-838 16 0
839 -838 -823 0
-839 838 0
-839 823 0
840 838 823 0
-840 -838 0
-840 -823 0
841 839 840 0
-841 -839 0
-841 -840 0
842 740 -841 0
-842 -740 0
-842 841 0
843 -740 841 0
-843 740 0
-843 -841 0
844 842 843 0
-844 -842 0
-844 -843 0
845 -8 -17 0
-845 8 0
-845 17 0
846 -845 733 0
-846 845 0
-846 -733 0
847 837 733 0
-847 -837 0
-847 -733 0
848 -8 -17 0
-848 8 0
-848 17 0
849 -848 837 0
-849 848 0
-849 -837 0
850 849 847 0
-850 -849 0
-850 -847 0
851 846 -850 0
-851 -846 0
-851 850 0
852 -8 -17 0
-852 8 0
-852 17 0
853 -852 -837 0
-853 852 0
-853 837 0
854 852 837 0
-854 -852 0
-854 -837 0
855 853 854 0
-855 -853 0
-855 -854 0
856 -855 733 0
-856 855 0
-856 -733 0
857 855 -733 0
-857 -855 0
-857 733 0
858 856 857 0
-858 -856 0
-858 -857 0
859 -1 -9 0
-859 1 0
-859 9 0
-860 859 0
860 -859 0
-861 -22 0
861 22 0
-862 -154 0
862 154 0
-863 -272 0
863 272 0
-864 -390 0
864 390 0
-865 -508 0
865 508 0
-866 -626 0
866 626 0
-867 -744 0
867 744 0
-868 -760 0
868 760 0
-869 -774 0
869 774 0
-870 -788 0
870 788 0
-871 -802 0
871 802 0
-872 -816 0
872 816 0
-873 -830 0
873 830 0
-874 -844 0
874 844 0
-875 -858 0
875 858 0
-876 -851 0
876 851 0
-860 0
-861 0
-862 0
-863 0
864 0
865 0
866 0
867 0
-868 0
-869 0
870 0
-871 0
-872 0
873 0
-874 0
875 0
-876 0
